
Gurobi 11.0.3 (mac64[x86]) logging started Tue Apr 15 17:12:30 2025

Set parameter LogFile to value "Results/SanityCheck/try_15_big.log"
Set parameter TimeLimit to value 84600
Set parameter Method to value 2
Set parameter Crossover to value 0
Set parameter BarHomogeneous to value 1
Set parameter BarConvTol to value 1e-10
Gurobi Optimizer version 11.0.3 build v11.0.3rc0 (mac64[x86] - Darwin 23.4.0 23E214)

CPU model: Intel(R) Core(TM) i7-1060NG7 CPU @ 1.20GHz
Thread count: 4 physical cores, 8 logical processors, using up to 8 threads

Optimize a model with 1496320 rows, 1917920 columns and 7073808 nonzeros
Model fingerprint: 0x2e543f5c
Coefficient statistics:
  Matrix range     [2e-01, 1e+00]
  Objective range  [6e-05, 5e+00]
  Bounds range     [0e+00, 0e+00]
  RHS range        [1e-02, 3e+03]
Presolve removed 1207856 rows and 1389728 columns
Presolve time: 4.10s

Barrier solved model in 0 iterations and 4.10 seconds (2.65 work units)
Model is infeasible or unbounded

Gurobi 11.0.3 (mac64[x86]) logging started Tue Apr 15 17:14:39 2025

Set parameter LogFile to value "Results/SanityCheck/try_15_big.log"
Set parameter TimeLimit to value 84600
Set parameter Method to value 2
Set parameter Crossover to value 0
Set parameter BarHomogeneous to value 1
Set parameter BarConvTol to value 1e-10
Gurobi Optimizer version 11.0.3 build v11.0.3rc0 (mac64[x86] - Darwin 23.4.0 23E214)

CPU model: Intel(R) Core(TM) i7-1060NG7 CPU @ 1.20GHz
Thread count: 4 physical cores, 8 logical processors, using up to 8 threads

Optimize a model with 1496320 rows, 1917920 columns and 7073808 nonzeros
Model fingerprint: 0xda99598f
Coefficient statistics:
  Matrix range     [2e-01, 1e+00]
  Objective range  [6e-05, 5e+00]
  Bounds range     [0e+00, 0e+00]
  RHS range        [1e-02, 3e+03]
Presolve removed 1210000 rows and 1390784 columns (presolve time = 5s) ...
Presolve removed 1211792 rows and 1390896 columns
Presolve time: 5.55s
Presolved: 284528 rows, 527120 columns, 1878608 nonzeros
Ordering time: 0.52s

Barrier statistics:
 AA' NZ     : 2.680e+05
 Factor NZ  : 5.518e+06 (roughly 80 MB of memory)
 Factor Ops : 3.559e+09 (less than 1 second per iteration)
 Threads    : 4

                  Objective                Residual
Iter       Primal          Dual         Primal    Dual     Compl     Time
   0   8.45558951e+06  1.73151100e+11  1.48e+04 6.23e+03  4.07e+07     7s
   1  -1.48246575e+07  8.75696495e+10  4.16e+03 6.87e+03  1.33e+07     7s
   2  -1.63376380e+07  7.69423460e+09  9.87e+02 6.68e+02  1.73e+06     7s
   3  -1.54830284e+07  2.06706720e+09  5.83e+01 2.69e+01  1.05e+05     7s
   4  -7.63898883e+06  2.93672058e+08  4.59e+00 3.51e+00  8.41e+03     7s
   5  -4.29623933e+06  1.68825629e+07  3.68e-01 1.46e-01  4.35e+02     8s
   6  -8.79464470e+05  1.59022670e+06  4.88e-02 3.55e-02  4.26e+01     8s
   7  -6.50609994e+03  9.36488839e+04  2.35e-03 1.14e-03  1.60e+00     8s
   8   2.41192466e+04  4.45905403e+04  4.23e-04 1.23e-04  3.23e-01     8s
   9   3.05090591e+04  3.55700040e+04  5.33e-05 1.66e-05  7.65e-02     8s
  10   3.19092955e+04  3.31614735e+04  8.97e-06 2.60e-06  1.69e-02     9s
  11   3.22744603e+04  3.26897623e+04  1.96e-06 1.35e-12  5.22e-03     9s
  12   3.23843636e+04  3.25200502e+04  5.05e-07 1.01e-11  1.64e-03     9s
  13   3.24312106e+04  3.24702555e+04  9.06e-08 1.44e-11  4.66e-04     9s
  14   3.24414218e+04  3.24578407e+04  2.85e-08 6.16e-11  1.96e-04     9s
  15   3.24439435e+04  3.24533875e+04  1.59e-08 2.08e-10  1.12e-04    10s
  16   3.24453214e+04  3.24516473e+04  9.73e-09 6.00e-11  7.53e-05    10s
  17   3.24461209e+04  3.24508366e+04  9.12e-09 1.29e-07  5.61e-05    10s
  18   3.24468291e+04  3.24498451e+04  1.04e-08 4.47e-11  3.59e-05    10s
  19   3.24471713e+04  3.24490519e+04  1.67e-08 2.07e-10  2.24e-05    10s
  20   3.24472508e+04  3.24483543e+04  1.02e-08 3.85e-11  1.31e-05    10s
  21   3.24474885e+04  3.24480719e+04  4.84e-09 9.16e-11  6.94e-06    11s
  22   3.24476269e+04  3.24478875e+04  1.86e-09 5.41e-10  3.10e-06    11s
  23   3.24476553e+04  3.24478082e+04  1.33e-09 2.80e-10  1.82e-06    11s
  24   3.24476808e+04  3.24477715e+04  7.73e-10 7.45e-09  1.08e-06    11s
  25   3.24476888e+04  3.24477609e+04  6.11e-10 3.51e-09  8.57e-07    12s
  26   3.24477017e+04  3.24477429e+04  3.63e-10 6.28e-09  4.90e-07    12s
  27   3.24477129e+04  3.24477316e+04  1.45e-10 1.03e-09  2.23e-07    12s
  28   3.24477177e+04  3.24477259e+04  1.37e-09 4.54e-08  9.72e-08    12s
  29   3.24477186e+04  3.24477208e+04  6.95e-09 3.21e-07  2.52e-08    13s
  30   3.24477186e+04  3.24477207e+04  6.88e-09 1.08e-07  2.47e-08    13s
  31   3.24477197e+04  3.24477207e+04  3.28e-08 1.24e-08  1.17e-08    13s
  32   3.24477206e+04  3.24477206e+04  2.65e-09 2.86e-11  3.59e-11    13s
  33   3.24477206e+04  3.24477206e+04  6.31e-09 3.02e-09  2.64e-11    14s
  34   3.24477206e+04  3.24477206e+04  8.28e-11 2.95e-11  1.77e-13    14s

Barrier solved model in 34 iterations and 13.75 seconds (9.87 work units)
Optimal objective 3.24477206e+04

